language ESSENCE' 1.0

letting fixed be 
[
    [0,0,0,5,0,3,4,7,0],
    [5,0,0,8,0,4,0,6,0],
    [4,0,0,0,9,6,0,5,2],
    [8,5,7,0,0,9,6,0,4],
    [3,2,4,6,0,7,5,9,0],
    [0,0,6,0,0,5,0,3,7],
    [2,8,5,0,6,1,0,4,0],
    [0,0,9,0,0,8,0,0,5],
    [0,4,3,9,5,2,0,8,6]
]